param n := 2;

param m := 5;

param K := 500;

param a :=
1 	 0.233666
2 	 0.101967
;
 param A :=
[1, *, *]:  1	2	:=
1	0.031714	-0.694657	
2	-0.045718	0.243612	

[2, *, *]:  1	2	:=
1	0.088020	-0.710909	
2	0.308275	0.503056	

[3, *, *]:  1	2	:=
1	-0.555902	0.570592	
2	0.038704	-0.955339	

[4, *, *]:  1	2	:=
1	-0.351275	0.689419	
2	0.745845	0.076881	

[5, *, *]:  1	2	:=
1	0.733217	0.652814	
2	0.899612	0.708231	
;